
-10.9
-10.5
-10.4
-9.9
-9.0
-8.2
-7.1
-5.5
-3.1
-2.2
-1.9
-1.7
-1.4
-1.3
-1.3
-1.2
-1.2
-1.2
-1.2
-1.2
-1.2
-1.2
-1.2
-1.2
-1.2
-1.2
-1.2
-1.2
-1.1
-1.1
-1.1
-1.1
-1.1
-10.8
-10.55
-10.35
-9.95
-9.3
-8.2
-6.85
-5.1
-2.85
-2.0
-1.75
-1.65
-1.55
-1.55
-1.5
-1.4
-1.35
-1.35
-1.25
-1.2
-1.2
-1.2
-1.15
-1.15
-1.1
-1.1
-1.1
-1.1
-1.1
-1.1
-1.1
-1.1
-1.1
-1.1
-1.1
-1.1
-1.1
-1.1
-1.1